(set-logic QF_S)
(set-option :strings-exp true)
(set-option :produce-models true)
(declare-fun sigmaStar_0 () String)
(declare-fun x_7 () String)
(declare-fun epsilon () String)
(declare-fun literal_8 () String)
(declare-fun x_9 () String)
(assert (= epsilon ""))
(assert (or (= x_7 epsilon)))
(assert (= literal_8 "\x3c\x2f\x64\x69\x76\x3e"))
(assert (= x_9 (str.++ x_7 literal_8)))
(assert (str.in.re x_9 (re.++ (re.* re.allchar) (re.++ (str.to.re "\x5c\x3c\x53\x43\x52\x49\x50\x54") (re.* re.allchar)))))
(check-sat)
(get-model)
